p edge 250 3114
e 1 16
e 1 27
e 1 53
e 1 59
e 1 102
e 1 112
e 1 128
e 1 133
e 1 136
e 1 148
e 1 152
e 1 162
e 1 179
e 1 191
e 1 221
e 1 235
e 1 238
e 1 242
e 2 29
e 2 36
e 2 37
e 2 52
e 2 57
e 2 64
e 2 100
e 2 110
e 2 115
e 2 160
e 2 163
e 2 165
e 2 179
e 2 186
e 2 211
e 2 237
e 2 242
e 2 249
e 3 6
e 3 8
e 3 15
e 3 20
e 3 24
e 3 27
e 3 35
e 3 38
e 3 40
e 3 57
e 3 61
e 3 65
e 3 91
e 3 101
e 3 103
e 3 110
e 3 129
e 3 159
e 3 223
e 3 224
e 3 226
e 3 237
e 4 32
e 4 50
e 4 51
e 4 59
e 4 70
e 4 76
e 4 79
e 4 82
e 4 112
e 4 114
e 4 124
e 4 129
e 4 133
e 4 141
e 4 143
e 4 151
e 4 153
e 4 182
e 4 192
e 4 202
e 4 224
e 4 236
e 5 14
e 5 46
e 5 62
e 5 64
e 5 88
e 5 91
e 5 104
e 5 106
e 5 110
e 5 132
e 5 138
e 5 140
e 5 162
e 5 197
e 5 201
e 5 202
e 5 221
e 6 24
e 6 28
e 6 33
e 6 52
e 6 57
e 6 69
e 6 76
e 6 94
e 6 96
e 6 100
e 6 131
e 6 132
e 6 150
e 6 173
e 6 182
e 6 191
e 6 192
e 6 193
e 6 195
e 6 200
e 6 208
e 6 235
e 6 238
e 6 245
e 7 12
e 7 13
e 7 18
e 7 26
e 7 29
e 7 31
e 7 71
e 7 75
e 7 83
e 7 99
e 7 101
e 7 105
e 7 113
e 7 117
e 7 126
e 7 149
e 7 160
e 7 183
e 7 184
e 7 216
e 7 249
e 8 10
e 8 31
e 8 51
e 8 52
e 8 55
e 8 69
e 8 72
e 8 79
e 8 98
e 8 99
e 8 122
e 8 134
e 8 139
e 8 156
e 8 163
e 8 166
e 8 178
e 8 196
e 8 200
e 8 201
e 8 203
e 8 204
e 8 206
e 8 209
e 8 210
e 8 216
e 8 219
e 8 220
e 8 221
e 8 225
e 8 241
e 8 244
e 8 250
e 9 15
e 9 18
e 9 23
e 9 38
e 9 42
e 9 62
e 9 99
e 9 101
e 9 106
e 9 115
e 9 119
e 9 120
e 9 155
e 9 170
e 9 173
e 9 196
e 9 199
e 9 223
e 9 235
e 9 238
e 9 249
e 10 11
e 10 16
e 10 28
e 10 29
e 10 31
e 10 46
e 10 50
e 10 57
e 10 63
e 10 71
e 10 77
e 10 81
e 10 87
e 10 109
e 10 119
e 10 139
e 10 163
e 10 170
e 10 178
e 10 190
e 10 191
e 10 196
e 10 199
e 10 224
e 10 247
e 11 23
e 11 27
e 11 28
e 11 45
e 11 48
e 11 80
e 11 97
e 11 104
e 11 108
e 11 111
e 11 114
e 11 117
e 11 136
e 11 146
e 11 157
e 11 168
e 11 188
e 11 193
e 11 203
e 11 204
e 11 209
e 11 219
e 11 226
e 11 228
e 11 241
e 12 26
e 12 28
e 12 37
e 12 42
e 12 44
e 12 62
e 12 64
e 12 71
e 12 79
e 12 90
e 12 100
e 12 103
e 12 125
e 12 126
e 12 134
e 12 160
e 12 164
e 12 168
e 12 184
e 12 196
e 12 209
e 12 214
e 12 228
e 12 233
e 13 21
e 13 39
e 13 50
e 13 60
e 13 103
e 13 112
e 13 124
e 13 125
e 13 126
e 13 147
e 13 162
e 13 187
e 13 194
e 13 205
e 13 208
e 13 217
e 13 237
e 13 239
e 13 247
e 13 248
e 14 19
e 14 22
e 14 35
e 14 38
e 14 39
e 14 42
e 14 47
e 14 62
e 14 82
e 14 91
e 14 94
e 14 99
e 14 113
e 14 118
e 14 120
e 14 135
e 14 147
e 14 148
e 14 151
e 14 170
e 14 173
e 14 195
e 14 203
e 14 238
e 14 243
e 14 247
e 14 250
e 15 45
e 15 82
e 15 85
e 15 114
e 15 120
e 15 127
e 15 141
e 15 154
e 15 201
e 15 202
e 15 204
e 15 221
e 15 227
e 15 231
e 15 248
e 16 20
e 16 21
e 16 29
e 16 37
e 16 46
e 16 53
e 16 64
e 16 71
e 16 77
e 16 87
e 16 104
e 16 111
e 16 113
e 16 125
e 16 144
e 16 165
e 16 191
e 16 196
e 16 203
e 16 204
e 16 209
e 16 244
e 17 25
e 17 28
e 17 35
e 17 38
e 17 47
e 17 56
e 17 79
e 17 82
e 17 105
e 17 107
e 17 113
e 17 131
e 17 133
e 17 138
e 17 145
e 17 150
e 17 151
e 17 153
e 17 154
e 17 163
e 17 166
e 17 181
e 17 190
e 17 196
e 17 224
e 17 230
e 17 231
e 18 21
e 18 29
e 18 50
e 18 83
e 18 100
e 18 108
e 18 109
e 18 115
e 18 122
e 18 129
e 18 142
e 18 167
e 18 172
e 18 179
e 18 206
e 19 21
e 19 40
e 19 41
e 19 74
e 19 82
e 19 90
e 19 91
e 19 105
e 19 126
e 19 131
e 19 157
e 19 166
e 19 175
e 19 198
e 19 210
e 19 231
e 19 237
e 20 39
e 20 54
e 20 65
e 20 77
e 20 91
e 20 102
e 20 104
e 20 105
e 20 115
e 20 116
e 20 125
e 20 137
e 20 140
e 20 142
e 20 152
e 20 154
e 20 157
e 20 167
e 20 182
e 20 209
e 20 215
e 20 221
e 20 225
e 20 226
e 20 240
e 21 23
e 21 33
e 21 36
e 21 37
e 21 63
e 21 86
e 21 90
e 21 96
e 21 104
e 21 113
e 21 115
e 21 121
e 21 126
e 21 132
e 21 168
e 21 180
e 21 181
e 21 187
e 21 193
e 21 195
e 21 201
e 21 207
e 21 209
e 21 217
e 21 218
e 21 247
e 22 24
e 22 29
e 22 38
e 22 41
e 22 55
e 22 86
e 22 96
e 22 105
e 22 112
e 22 116
e 22 147
e 22 150
e 22 167
e 22 168
e 22 184
e 22 186
e 22 193
e 22 198
e 22 210
e 22 232
e 22 244
e 23 24
e 23 30
e 23 36
e 23 43
e 23 44
e 23 98
e 23 107
e 23 115
e 23 146
e 23 152
e 23 165
e 23 181
e 23 187
e 23 196
e 23 222
e 23 229
e 23 233
e 23 244
e 24 40
e 24 43
e 24 44
e 24 46
e 24 84
e 24 88
e 24 94
e 24 96
e 24 121
e 24 129
e 24 136
e 24 146
e 24 150
e 24 151
e 24 166
e 24 169
e 24 191
e 24 193
e 24 237
e 24 246
e 25 26
e 25 34
e 25 38
e 25 39
e 25 45
e 25 48
e 25 55
e 25 63
e 25 67
e 25 70
e 25 71
e 25 94
e 25 95
e 25 116
e 25 121
e 25 122
e 25 164
e 25 169
e 25 182
e 25 193
e 25 199
e 25 214
e 25 221
e 25 227
e 25 234
e 25 246
e 26 34
e 26 41
e 26 46
e 26 51
e 26 56
e 26 64
e 26 70
e 26 75
e 26 77
e 26 85
e 26 106
e 26 111
e 26 116
e 26 131
e 26 137
e 26 143
e 26 149
e 26 151
e 26 155
e 26 170
e 26 175
e 26 176
e 26 179
e 26 219
e 26 227
e 26 229
e 26 234
e 26 244
e 27 36
e 27 72
e 27 82
e 27 92
e 27 97
e 27 123
e 27 130
e 27 159
e 27 160
e 27 165
e 27 175
e 27 176
e 27 178
e 27 195
e 27 228
e 27 233
e 27 234
e 28 29
e 28 36
e 28 43
e 28 53
e 28 64
e 28 65
e 28 70
e 28 71
e 28 76
e 28 81
e 28 92
e 28 97
e 28 102
e 28 103
e 28 104
e 28 109
e 28 124
e 28 126
e 28 128
e 28 143
e 28 154
e 28 159
e 28 214
e 28 215
e 28 217
e 28 220
e 28 226
e 28 236
e 28 243
e 28 249
e 29 33
e 29 57
e 29 59
e 29 83
e 29 88
e 29 103
e 29 108
e 29 110
e 29 116
e 29 120
e 29 178
e 29 192
e 29 198
e 29 217
e 29 224
e 29 226
e 29 230
e 29 234
e 29 247
e 30 34
e 30 36
e 30 48
e 30 63
e 30 66
e 30 67
e 30 78
e 30 86
e 30 88
e 30 89
e 30 94
e 30 139
e 30 170
e 30 174
e 30 208
e 30 224
e 30 227
e 30 228
e 30 233
e 30 235
e 30 237
e 30 240
e 31 38
e 31 39
e 31 50
e 31 57
e 31 67
e 31 68
e 31 75
e 31 81
e 31 115
e 31 131
e 31 134
e 31 154
e 31 157
e 31 161
e 31 163
e 31 168
e 31 176
e 31 206
e 32 43
e 32 55
e 32 71
e 32 76
e 32 87
e 32 102
e 32 105
e 32 116
e 32 117
e 32 124
e 32 126
e 32 128
e 32 131
e 32 132
e 32 137
e 32 159
e 32 160
e 32 164
e 32 172
e 32 178
e 32 184
e 32 187
e 32 193
e 32 196
e 32 197
e 32 206
e 32 215
e 32 229
e 32 238
e 32 244
e 33 40
e 33 59
e 33 71
e 33 85
e 33 86
e 33 88
e 33 102
e 33 108
e 33 111
e 33 113
e 33 125
e 33 157
e 33 167
e 33 170
e 33 190
e 33 199
e 33 220
e 33 221
e 33 227
e 33 229
e 33 233
e 33 234
e 33 243
e 33 247
e 34 46
e 34 48
e 34 49
e 34 55
e 34 71
e 34 81
e 34 92
e 34 95
e 34 100
e 34 103
e 34 132
e 34 135
e 34 144
e 34 146
e 34 154
e 34 159
e 34 166
e 34 167
e 34 173
e 34 176
e 34 198
e 34 206
e 34 209
e 34 219
e 34 239
e 34 248
e 35 47
e 35 83
e 35 88
e 35 90
e 35 103
e 35 104
e 35 107
e 35 125
e 35 132
e 35 139
e 35 145
e 35 151
e 35 196
e 35 197
e 35 202
e 35 216
e 35 240
e 35 242
e 35 247
e 35 250
e 36 42
e 36 45
e 36 47
e 36 51
e 36 55
e 36 70
e 36 88
e 36 102
e 36 133
e 36 135
e 36 153
e 36 162
e 36 170
e 36 219
e 36 220
e 36 229
e 36 243
e 37 44
e 37 55
e 37 64
e 37 69
e 37 74
e 37 93
e 37 102
e 37 109
e 37 115
e 37 118
e 37 120
e 37 192
e 37 193
e 37 197
e 37 201
e 37 207
e 37 208
e 37 209
e 37 216
e 37 222
e 37 223
e 37 231
e 37 232
e 38 40
e 38 65
e 38 67
e 38 73
e 38 81
e 38 85
e 38 91
e 38 96
e 38 109
e 38 115
e 38 117
e 38 119
e 38 136
e 38 145
e 38 146
e 38 148
e 38 167
e 38 190
e 38 193
e 38 196
e 38 197
e 38 199
e 38 214
e 38 220
e 38 223
e 38 243
e 38 247
e 39 42
e 39 47
e 39 48
e 39 67
e 39 85
e 39 109
e 39 120
e 39 128
e 39 137
e 39 149
e 39 159
e 39 166
e 39 182
e 39 200
e 39 203
e 39 210
e 39 249
e 40 46
e 40 57
e 40 58
e 40 61
e 40 65
e 40 77
e 40 92
e 40 103
e 40 127
e 40 132
e 40 148
e 40 150
e 40 153
e 40 167
e 40 173
e 40 174
e 40 178
e 40 186
e 40 190
e 40 197
e 40 202
e 40 210
e 40 220
e 40 246
e 41 57
e 41 61
e 41 84
e 41 89
e 41 96
e 41 110
e 41 125
e 41 133
e 41 141
e 41 147
e 41 156
e 41 178
e 41 188
e 41 189
e 41 191
e 41 194
e 41 218
e 41 221
e 41 240
e 42 49
e 42 55
e 42 58
e 42 60
e 42 69
e 42 93
e 42 94
e 42 104
e 42 105
e 42 138
e 42 159
e 42 186
e 42 188
e 42 209
e 42 212
e 43 51
e 43 96
e 43 126
e 43 128
e 43 136
e 43 138
e 43 140
e 43 145
e 43 168
e 43 169
e 43 173
e 43 192
e 43 196
e 43 197
e 43 200
e 43 201
e 44 90
e 44 94
e 44 97
e 44 108
e 44 132
e 44 133
e 44 143
e 44 144
e 44 156
e 44 166
e 44 167
e 44 172
e 44 187
e 44 191
e 44 196
e 44 214
e 44 218
e 44 232
e 44 236
e 44 245
e 44 248
e 45 50
e 45 59
e 45 68
e 45 74
e 45 94
e 45 110
e 45 114
e 45 140
e 45 142
e 45 152
e 45 156
e 45 160
e 45 171
e 45 179
e 45 180
e 45 181
e 45 190
e 45 192
e 45 200
e 45 210
e 45 215
e 45 237
e 45 239
e 46 49
e 46 57
e 46 71
e 46 76
e 46 86
e 46 95
e 46 115
e 46 124
e 46 136
e 46 142
e 46 152
e 46 163
e 46 166
e 46 172
e 46 179
e 46 191
e 46 192
e 46 194
e 46 199
e 46 223
e 46 225
e 46 226
e 46 229
e 47 71
e 47 93
e 47 119
e 47 147
e 47 148
e 47 150
e 47 153
e 47 164
e 47 181
e 47 183
e 47 186
e 47 189
e 47 190
e 47 196
e 47 200
e 47 210
e 47 212
e 47 215
e 47 222
e 47 238
e 47 244
e 47 245
e 47 250
e 48 61
e 48 65
e 48 67
e 48 77
e 48 104
e 48 109
e 48 112
e 48 136
e 48 140
e 48 147
e 48 149
e 48 174
e 48 177
e 48 178
e 48 181
e 48 185
e 48 188
e 48 189
e 48 196
e 48 212
e 48 214
e 48 219
e 49 53
e 49 64
e 49 111
e 49 119
e 49 127
e 49 134
e 49 136
e 49 173
e 49 175
e 49 197
e 49 199
e 49 201
e 49 203
e 49 204
e 49 227
e 49 228
e 49 237
e 49 242
e 49 243
e 49 247
e 50 57
e 50 61
e 50 69
e 50 73
e 50 87
e 50 88
e 50 106
e 50 124
e 50 129
e 50 154
e 50 161
e 50 182
e 50 245
e 50 247
e 51 63
e 51 64
e 51 73
e 51 88
e 51 96
e 51 116
e 51 121
e 51 137
e 51 143
e 51 149
e 51 150
e 51 152
e 51 165
e 51 172
e 51 186
e 51 207
e 51 208
e 51 221
e 51 223
e 51 232
e 51 233
e 51 236
e 51 240
e 52 97
e 52 124
e 52 140
e 52 147
e 52 153
e 52 160
e 52 171
e 52 177
e 52 215
e 52 221
e 52 226
e 52 244
e 52 246
e 52 249
e 53 71
e 53 77
e 53 101
e 53 104
e 53 123
e 53 125
e 53 130
e 53 137
e 53 140
e 53 155
e 53 163
e 53 169
e 53 196
e 53 202
e 53 209
e 53 230
e 53 245
e 53 247
e 53 248
e 54 65
e 54 73
e 54 74
e 54 117
e 54 119
e 54 122
e 54 128
e 54 130
e 54 145
e 54 205
e 54 208
e 54 217
e 54 221
e 54 228
e 54 243
e 55 56
e 55 58
e 55 69
e 55 84
e 55 86
e 55 87
e 55 90
e 55 92
e 55 93
e 55 94
e 55 102
e 55 104
e 55 114
e 55 115
e 55 120
e 55 146
e 55 148
e 55 157
e 55 192
e 55 199
e 55 201
e 55 214
e 55 220
e 55 223
e 55 241
e 56 76
e 56 79
e 56 81
e 56 89
e 56 90
e 56 97
e 56 109
e 56 113
e 56 118
e 56 135
e 56 144
e 56 172
e 56 176
e 56 180
e 56 187
e 56 202
e 56 206
e 56 233
e 56 239
e 56 245
e 57 62
e 57 72
e 57 86
e 57 102
e 57 105
e 57 132
e 57 137
e 57 138
e 57 157
e 57 161
e 57 166
e 57 172
e 57 175
e 57 183
e 57 190
e 57 201
e 57 205
e 57 241
e 58 67
e 58 68
e 58 69
e 58 74
e 58 81
e 58 94
e 58 97
e 58 128
e 58 136
e 58 140
e 58 146
e 58 152
e 58 166
e 58 180
e 58 196
e 58 197
e 58 206
e 58 213
e 58 215
e 58 217
e 58 222
e 58 223
e 58 230
e 58 234
e 58 235
e 58 242
e 58 246
e 59 69
e 59 73
e 59 84
e 59 85
e 59 86
e 59 107
e 59 114
e 59 117
e 59 130
e 59 147
e 59 157
e 59 161
e 59 165
e 59 169
e 59 171
e 59 179
e 59 199
e 59 200
e 59 213
e 59 233
e 59 242
e 60 62
e 60 63
e 60 68
e 60 75
e 60 122
e 60 161
e 60 163
e 60 164
e 60 167
e 60 173
e 60 174
e 60 178
e 60 181
e 60 190
e 60 194
e 60 222
e 60 229
e 60 248
e 61 78
e 61 111
e 61 131
e 61 143
e 61 145
e 61 148
e 61 151
e 61 174
e 61 189
e 61 204
e 61 221
e 61 224
e 61 227
e 61 236
e 61 241
e 62 64
e 62 80
e 62 92
e 62 97
e 62 124
e 62 133
e 62 144
e 62 158
e 62 168
e 62 201
e 62 203
e 62 205
e 62 223
e 62 224
e 62 232
e 62 237
e 62 245
e 63 84
e 63 87
e 63 97
e 63 103
e 63 105
e 63 106
e 63 113
e 63 131
e 63 145
e 63 158
e 63 160
e 63 174
e 63 179
e 63 221
e 63 238
e 63 241
e 63 242
e 63 249
e 64 66
e 64 84
e 64 87
e 64 97
e 64 114
e 64 129
e 64 149
e 64 160
e 64 164
e 64 185
e 64 189
e 64 206
e 64 215
e 64 232
e 64 239
e 64 246
e 65 78
e 65 81
e 65 82
e 65 93
e 65 96
e 65 102
e 65 109
e 65 129
e 65 142
e 65 148
e 65 165
e 65 170
e 65 173
e 65 177
e 65 182
e 65 190
e 65 203
e 65 205
e 65 206
e 65 208
e 65 216
e 65 218
e 65 232
e 65 235
e 65 237
e 65 241
e 65 242
e 66 70
e 66 72
e 66 81
e 66 112
e 66 142
e 66 147
e 66 151
e 66 167
e 66 179
e 66 185
e 66 211
e 66 225
e 66 236
e 66 245
e 67 80
e 67 85
e 67 101
e 67 103
e 67 107
e 67 108
e 67 116
e 67 118
e 67 128
e 67 150
e 67 154
e 67 163
e 67 178
e 67 201
e 67 203
e 67 212
e 67 226
e 67 237
e 67 249
e 68 89
e 68 92
e 68 93
e 68 102
e 68 106
e 68 120
e 68 123
e 68 126
e 68 136
e 68 140
e 68 148
e 68 150
e 68 169
e 68 171
e 68 177
e 68 183
e 68 184
e 68 185
e 68 196
e 68 200
e 68 209
e 68 210
e 68 232
e 68 237
e 68 238
e 69 74
e 69 98
e 69 99
e 69 128
e 69 134
e 69 140
e 69 151
e 69 153
e 69 177
e 69 183
e 69 185
e 69 196
e 69 197
e 69 200
e 69 210
e 69 211
e 69 234
e 69 241
e 69 243
e 70 73
e 70 75
e 70 87
e 70 88
e 70 89
e 70 97
e 70 120
e 70 121
e 70 122
e 70 126
e 70 142
e 70 145
e 70 148
e 70 154
e 70 180
e 70 201
e 70 208
e 70 210
e 71 85
e 71 88
e 71 100
e 71 106
e 71 107
e 71 118
e 71 119
e 71 126
e 71 134
e 71 143
e 71 158
e 71 167
e 71 176
e 71 177
e 71 178
e 71 192
e 71 198
e 71 204
e 71 207
e 71 210
e 71 217
e 71 218
e 71 223
e 71 225
e 71 233
e 71 239
e 71 249
e 72 76
e 72 81
e 72 109
e 72 134
e 72 137
e 72 164
e 72 165
e 72 181
e 72 196
e 72 201
e 72 215
e 72 216
e 72 218
e 72 222
e 73 96
e 73 98
e 73 106
e 73 119
e 73 150
e 73 152
e 73 162
e 73 197
e 73 199
e 73 205
e 73 228
e 73 229
e 73 250
e 74 78
e 74 79
e 74 83
e 74 91
e 74 96
e 74 111
e 74 118
e 74 156
e 74 167
e 74 168
e 74 171
e 74 177
e 74 202
e 74 215
e 74 224
e 74 250
e 75 77
e 75 79
e 75 115
e 75 130
e 75 141
e 75 143
e 75 161
e 75 162
e 75 169
e 75 171
e 75 181
e 75 182
e 75 190
e 75 196
e 75 200
e 75 202
e 75 219
e 75 220
e 75 222
e 75 242
e 75 248
e 76 87
e 76 91
e 76 97
e 76 101
e 76 102
e 76 105
e 76 108
e 76 116
e 76 124
e 76 129
e 76 136
e 76 142
e 76 155
e 76 156
e 76 174
e 76 177
e 76 180
e 76 198
e 76 201
e 76 212
e 76 213
e 76 219
e 76 221
e 76 234
e 76 245
e 77 88
e 77 94
e 77 97
e 77 120
e 77 127
e 77 154
e 77 170
e 77 181
e 77 185
e 77 188
e 77 205
e 77 209
e 77 213
e 77 215
e 77 219
e 77 226
e 77 228
e 77 234
e 77 240
e 78 79
e 78 102
e 78 106
e 78 109
e 78 113
e 78 126
e 78 127
e 78 132
e 78 136
e 78 139
e 78 141
e 78 149
e 78 162
e 78 189
e 78 215
e 78 217
e 78 223
e 79 80
e 79 82
e 79 95
e 79 99
e 79 111
e 79 131
e 79 132
e 79 142
e 79 160
e 79 172
e 79 182
e 79 210
e 79 225
e 79 233
e 79 238
e 80 85
e 80 97
e 80 100
e 80 108
e 80 113
e 80 127
e 80 135
e 80 145
e 80 157
e 80 159
e 80 165
e 80 179
e 80 193
e 80 203
e 80 219
e 80 234
e 80 237
e 80 247
e 81 84
e 81 88
e 81 96
e 81 103
e 81 131
e 81 134
e 81 138
e 81 141
e 81 144
e 81 155
e 81 157
e 81 199
e 81 207
e 81 210
e 81 213
e 81 226
e 81 227
e 81 228
e 81 245
e 82 93
e 82 105
e 82 120
e 82 126
e 82 128
e 82 150
e 82 159
e 82 179
e 82 203
e 82 204
e 82 212
e 82 219
e 82 220
e 82 228
e 82 230
e 82 233
e 82 234
e 82 235
e 82 238
e 82 242
e 83 98
e 83 116
e 83 122
e 83 134
e 83 136
e 83 144
e 83 205
e 83 211
e 83 215
e 83 218
e 83 241
e 84 88
e 84 103
e 84 108
e 84 110
e 84 118
e 84 126
e 84 140
e 84 157
e 84 162
e 84 165
e 84 176
e 84 181
e 84 204
e 84 212
e 84 215
e 84 216
e 84 223
e 84 226
e 84 232
e 84 241
e 85 86
e 85 90
e 85 100
e 85 103
e 85 114
e 85 115
e 85 116
e 85 119
e 85 137
e 85 141
e 85 147
e 85 152
e 85 156
e 85 165
e 85 179
e 85 188
e 85 197
e 85 201
e 85 206
e 85 209
e 85 215
e 85 228
e 85 235
e 85 247
e 85 248
e 86 87
e 86 94
e 86 99
e 86 104
e 86 114
e 86 126
e 86 130
e 86 134
e 86 138
e 86 139
e 86 149
e 86 152
e 86 159
e 86 162
e 86 177
e 86 184
e 86 190
e 86 192
e 86 202
e 86 206
e 86 223
e 86 228
e 86 229
e 87 88
e 87 108
e 87 110
e 87 112
e 87 122
e 87 125
e 87 134
e 87 142
e 87 182
e 87 183
e 87 186
e 87 207
e 87 217
e 87 244
e 88 109
e 88 112
e 88 129
e 88 139
e 88 143
e 88 197
e 88 201
e 88 245
e 89 97
e 89 108
e 89 130
e 89 141
e 89 142
e 89 147
e 89 148
e 89 170
e 89 189
e 89 193
e 89 195
e 89 198
e 89 211
e 89 246
e 90 128
e 90 140
e 90 159
e 90 168
e 90 176
e 90 180
e 90 192
e 90 209
e 90 229
e 90 240
e 90 244
e 91 104
e 91 115
e 91 116
e 91 117
e 91 118
e 91 119
e 91 131
e 91 147
e 91 148
e 91 149
e 91 182
e 91 191
e 91 225
e 91 227
e 91 229
e 92 93
e 92 114
e 92 129
e 92 168
e 92 196
e 92 227
e 92 230
e 92 232
e 92 248
e 93 111
e 93 115
e 93 119
e 93 151
e 93 162
e 93 166
e 93 189
e 93 210
e 94 98
e 94 112
e 94 123
e 94 129
e 94 132
e 94 134
e 94 136
e 94 139
e 94 164
e 94 179
e 94 188
e 94 190
e 94 203
e 94 205
e 94 223
e 94 233
e 94 247
e 94 249
e 95 102
e 95 122
e 95 125
e 95 129
e 95 157
e 95 175
e 95 185
e 95 186
e 95 199
e 95 215
e 95 216
e 95 217
e 95 218
e 95 241
e 95 242
e 95 245
e 95 250
e 96 110
e 96 123
e 96 125
e 96 142
e 96 146
e 96 150
e 96 152
e 96 172
e 96 177
e 96 204
e 96 209
e 96 215
e 96 219
e 96 226
e 96 229
e 96 235
e 96 241
e 96 248
e 97 108
e 97 111
e 97 114
e 97 122
e 97 125
e 97 153
e 97 154
e 97 170
e 97 177
e 97 183
e 97 184
e 97 213
e 97 220
e 97 223
e 97 225
e 97 240
e 97 250
e 98 113
e 98 120
e 98 126
e 98 128
e 98 130
e 98 140
e 98 143
e 98 149
e 98 152
e 98 153
e 98 162
e 98 164
e 98 171
e 98 172
e 98 206
e 98 208
e 98 212
e 98 214
e 98 217
e 98 218
e 98 226
e 98 236
e 98 240
e 99 102
e 99 108
e 99 110
e 99 114
e 99 126
e 99 130
e 99 142
e 99 150
e 99 153
e 99 158
e 99 161
e 99 164
e 99 171
e 99 211
e 99 238
e 99 240
e 100 117
e 100 120
e 100 123
e 100 129
e 100 131
e 100 134
e 100 140
e 100 144
e 100 146
e 100 181
e 100 189
e 100 197
e 100 226
e 100 250
e 101 103
e 101 126
e 101 141
e 101 145
e 101 151
e 101 174
e 101 177
e 101 187
e 101 188
e 101 190
e 101 198
e 101 208
e 101 238
e 101 247
e 102 107
e 102 116
e 102 118
e 102 120
e 102 132
e 102 133
e 102 143
e 102 146
e 102 150
e 102 161
e 102 172
e 102 184
e 102 199
e 102 200
e 102 205
e 102 208
e 102 218
e 102 226
e 102 234
e 103 109
e 103 116
e 103 121
e 103 124
e 103 133
e 103 134
e 103 140
e 103 173
e 103 197
e 103 206
e 103 209
e 103 228
e 103 242
e 103 246
e 104 121
e 104 131
e 104 147
e 104 167
e 104 187
e 104 191
e 104 199
e 104 204
e 104 209
e 104 218
e 104 246
e 105 111
e 105 118
e 105 127
e 105 150
e 105 153
e 105 163
e 105 164
e 105 175
e 105 190
e 105 208
e 105 211
e 105 212
e 105 227
e 105 233
e 105 237
e 105 248
e 106 108
e 106 125
e 106 130
e 106 139
e 106 141
e 106 151
e 106 153
e 106 154
e 106 171
e 106 175
e 106 182
e 106 189
e 106 190
e 106 199
e 106 209
e 106 213
e 106 224
e 106 229
e 106 230
e 106 234
e 106 248
e 107 111
e 107 116
e 107 161
e 107 165
e 107 177
e 107 187
e 107 205
e 107 208
e 107 209
e 107 211
e 107 220
e 107 228
e 108 118
e 108 123
e 108 129
e 108 131
e 108 138
e 108 147
e 108 148
e 108 151
e 108 154
e 108 155
e 108 174
e 108 204
e 108 206
e 108 224
e 108 226
e 108 231
e 108 235
e 108 241
e 108 242
e 108 244
e 109 112
e 109 126
e 109 127
e 109 132
e 109 153
e 109 155
e 109 163
e 109 184
e 109 186
e 109 214
e 109 216
e 109 219
e 109 223
e 109 232
e 109 247
e 109 248
e 110 128
e 110 143
e 110 146
e 110 152
e 110 156
e 110 160
e 110 162
e 110 175
e 110 182
e 110 183
e 110 184
e 110 191
e 110 206
e 110 212
e 110 213
e 110 221
e 110 225
e 110 228
e 110 229
e 110 231
e 110 245
e 111 132
e 111 140
e 111 142
e 111 150
e 111 165
e 111 187
e 111 197
e 111 203
e 111 224
e 111 232
e 111 236
e 111 240
e 112 118
e 112 141
e 112 143
e 112 147
e 112 149
e 112 154
e 112 167
e 112 195
e 112 204
e 112 211
e 112 215
e 112 223
e 112 233
e 112 241
e 113 121
e 113 137
e 113 153
e 113 157
e 113 161
e 113 162
e 113 164
e 113 174
e 113 175
e 113 181
e 113 199
e 113 200
e 113 232
e 113 240
e 114 123
e 114 142
e 114 146
e 114 147
e 114 157
e 114 173
e 114 179
e 114 181
e 114 186
e 114 196
e 114 212
e 114 213
e 114 214
e 114 227
e 114 248
e 115 116
e 115 128
e 115 140
e 115 162
e 115 164
e 115 166
e 115 170
e 115 176
e 115 188
e 115 197
e 115 208
e 115 216
e 115 247
e 116 119
e 116 129
e 116 133
e 116 135
e 116 149
e 116 151
e 116 161
e 116 168
e 116 177
e 116 187
e 116 191
e 116 197
e 116 202
e 116 207
e 116 221
e 116 226
e 116 240
e 116 247
e 117 136
e 117 140
e 117 148
e 117 150
e 117 186
e 117 191
e 117 194
e 117 199
e 117 200
e 117 207
e 117 214
e 117 216
e 117 221
e 117 222
e 117 239
e 117 242
e 118 121
e 118 147
e 118 153
e 118 155
e 118 170
e 118 188
e 118 190
e 118 214
e 118 228
e 118 232
e 119 124
e 119 133
e 119 156
e 119 164
e 119 174
e 119 194
e 119 201
e 119 223
e 119 230
e 119 235
e 119 238
e 120 156
e 120 159
e 120 174
e 120 182
e 120 185
e 120 203
e 120 205
e 120 224
e 120 225
e 120 228
e 120 248
e 121 122
e 121 129
e 121 132
e 121 138
e 121 141
e 121 151
e 121 152
e 121 164
e 121 170
e 121 192
e 121 193
e 121 199
e 121 208
e 121 212
e 121 213
e 121 216
e 121 224
e 121 229
e 122 123
e 122 125
e 122 134
e 122 146
e 122 151
e 122 153
e 122 165
e 122 204
e 122 208
e 122 218
e 122 220
e 122 246
e 123 137
e 123 143
e 123 150
e 123 153
e 123 158
e 123 172
e 123 173
e 123 178
e 123 184
e 123 187
e 123 192
e 123 203
e 123 204
e 123 224
e 123 239
e 123 242
e 123 245
e 124 133
e 124 134
e 124 137
e 124 187
e 124 193
e 124 198
e 124 209
e 124 211
e 124 213
e 124 235
e 124 249
e 125 142
e 125 149
e 125 156
e 125 168
e 125 174
e 125 186
e 125 192
e 125 220
e 125 221
e 125 227
e 125 248
e 126 156
e 126 161
e 126 167
e 126 171
e 126 173
e 126 174
e 126 181
e 126 187
e 126 193
e 126 194
e 126 206
e 126 217
e 126 218
e 126 235
e 126 246
e 126 249
e 127 149
e 127 167
e 127 177
e 127 196
e 127 199
e 127 201
e 127 203
e 127 204
e 127 219
e 127 239
e 128 135
e 128 140
e 128 155
e 128 184
e 128 201
e 128 203
e 128 204
e 128 218
e 128 235
e 128 239
e 128 240
e 129 146
e 129 152
e 129 174
e 129 176
e 129 192
e 129 239
e 129 242
e 129 247
e 130 158
e 130 163
e 130 195
e 130 199
e 130 205
e 130 237
e 130 242
e 131 155
e 131 161
e 131 162
e 131 168
e 131 173
e 131 177
e 131 191
e 131 199
e 131 208
e 131 216
e 131 229
e 132 140
e 132 147
e 132 155
e 132 190
e 132 194
e 132 236
e 132 249
e 133 139
e 133 145
e 133 159
e 133 166
e 133 168
e 133 187
e 133 203
e 133 205
e 133 210
e 133 221
e 133 223
e 133 237
e 133 242
e 134 151
e 134 168
e 134 169
e 134 177
e 134 180
e 134 190
e 134 194
e 134 221
e 134 226
e 134 239
e 135 149
e 135 166
e 135 169
e 135 171
e 135 172
e 135 188
e 135 193
e 135 222
e 135 227
e 135 233
e 135 239
e 136 137
e 136 147
e 136 150
e 136 155
e 136 157
e 136 176
e 136 192
e 136 196
e 136 226
e 136 237
e 136 244
e 136 249
e 137 144
e 137 177
e 137 193
e 137 207
e 137 211
e 137 214
e 137 218
e 137 223
e 137 233
e 137 237
e 137 243
e 138 139
e 138 147
e 138 153
e 138 170
e 138 175
e 138 176
e 138 189
e 138 209
e 138 214
e 138 235
e 138 236
e 138 249
e 139 144
e 139 147
e 139 155
e 139 168
e 139 172
e 139 176
e 139 238
e 139 244
e 140 147
e 140 151
e 140 153
e 140 161
e 140 168
e 140 172
e 140 183
e 140 184
e 140 194
e 140 208
e 140 214
e 140 215
e 140 217
e 140 222
e 140 235
e 140 244
e 140 247
e 140 249
e 141 149
e 141 152
e 141 160
e 141 178
e 141 182
e 141 188
e 141 190
e 141 213
e 141 224
e 141 238
e 142 148
e 142 151
e 142 183
e 142 216
e 142 217
e 142 219
e 142 230
e 143 152
e 143 175
e 143 178
e 143 179
e 143 181
e 143 187
e 143 192
e 143 200
e 143 206
e 143 216
e 143 223
e 143 233
e 143 235
e 143 236
e 143 249
e 144 147
e 144 154
e 144 156
e 144 167
e 144 175
e 144 193
e 144 207
e 144 208
e 144 209
e 144 221
e 144 223
e 144 248
e 145 146
e 145 151
e 145 173
e 145 180
e 145 204
e 145 226
e 146 162
e 146 169
e 146 173
e 146 206
e 146 207
e 146 209
e 146 213
e 146 215
e 146 228
e 146 233
e 147 155
e 147 173
e 147 192
e 147 200
e 147 231
e 147 236
e 148 157
e 148 166
e 148 173
e 148 182
e 148 186
e 148 187
e 148 189
e 148 190
e 148 199
e 148 207
e 148 226
e 148 238
e 148 241
e 148 243
e 149 176
e 149 185
e 149 193
e 149 204
e 149 237
e 149 241
e 150 157
e 150 163
e 150 181
e 150 191
e 150 192
e 150 203
e 150 221
e 150 226
e 150 230
e 150 243
e 151 160
e 151 199
e 151 202
e 151 211
e 152 158
e 152 160
e 152 161
e 152 165
e 152 172
e 152 176
e 152 179
e 152 181
e 152 186
e 152 200
e 152 213
e 152 225
e 152 237
e 152 241
e 152 248
e 153 154
e 153 164
e 153 169
e 153 172
e 153 176
e 153 184
e 153 190
e 153 202
e 153 231
e 153 232
e 153 241
e 154 163
e 154 174
e 154 175
e 154 191
e 154 192
e 154 193
e 154 195
e 154 196
e 154 197
e 154 200
e 154 221
e 154 224
e 154 228
e 154 230
e 154 234
e 154 250
e 155 158
e 155 184
e 155 197
e 155 204
e 155 207
e 155 212
e 155 215
e 155 223
e 155 246
e 155 250
e 156 175
e 156 177
e 156 202
e 156 210
e 156 213
e 156 215
e 156 216
e 156 222
e 156 224
e 156 228
e 156 243
e 157 178
e 157 182
e 157 193
e 157 199
e 157 220
e 158 175
e 158 180
e 158 211
e 158 221
e 158 231
e 159 160
e 159 161
e 159 179
e 159 189
e 159 217
e 159 228
e 159 245
e 160 175
e 160 183
e 160 188
e 160 219
e 160 229
e 160 234
e 160 245
e 161 170
e 161 175
e 161 180
e 161 190
e 161 201
e 161 209
e 161 213
e 161 233
e 161 235
e 161 245
e 162 164
e 162 171
e 162 175
e 162 176
e 162 178
e 162 182
e 162 183
e 162 185
e 162 196
e 162 207
e 162 214
e 162 236
e 163 183
e 163 186
e 163 196
e 163 206
e 163 227
e 163 234
e 163 240
e 164 171
e 164 172
e 164 174
e 164 175
e 164 176
e 164 181
e 164 182
e 164 193
e 164 200
e 164 216
e 164 233
e 164 245
e 164 246
e 165 167
e 165 188
e 165 194
e 165 198
e 165 207
e 165 246
e 165 249
e 166 173
e 166 183
e 166 190
e 166 208
e 166 212
e 166 217
e 166 221
e 166 222
e 166 226
e 166 230
e 166 232
e 166 240
e 167 182
e 167 196
e 167 209
e 167 214
e 167 226
e 167 227
e 167 234
e 167 245
e 167 247
e 167 249
e 168 179
e 168 189
e 168 196
e 168 198
e 168 204
e 168 207
e 168 215
e 168 218
e 168 242
e 169 172
e 169 181
e 169 204
e 169 219
e 169 239
e 169 248
e 169 250
e 170 172
e 170 184
e 170 186
e 170 193
e 170 207
e 170 225
e 170 229
e 170 234
e 170 250
e 171 172
e 171 175
e 171 189
e 171 201
e 171 202
e 171 208
e 171 210
e 171 227
e 171 230
e 172 191
e 172 197
e 172 201
e 172 214
e 172 216
e 172 221
e 172 222
e 172 223
e 172 229
e 172 232
e 172 250
e 173 175
e 173 182
e 173 183
e 173 194
e 173 195
e 173 209
e 173 227
e 173 229
e 173 230
e 174 179
e 174 181
e 174 191
e 174 204
e 174 241
e 175 201
e 175 202
e 175 213
e 175 222
e 175 225
e 175 236
e 175 243
e 176 179
e 176 183
e 176 190
e 176 192
e 176 196
e 176 211
e 176 246
e 177 192
e 177 202
e 177 203
e 177 216
e 177 219
e 177 224
e 177 225
e 177 227
e 177 242
e 177 249
e 178 195
e 178 197
e 178 204
e 178 219
e 178 245
e 178 248
e 179 183
e 179 191
e 179 194
e 179 211
e 179 221
e 180 195
e 180 201
e 180 210
e 180 213
e 180 216
e 180 230
e 181 198
e 181 210
e 181 233
e 182 219
e 182 223
e 182 232
e 182 233
e 182 247
e 182 250
e 183 187
e 183 203
e 183 211
e 183 219
e 183 236
e 183 238
e 183 242
e 183 248
e 184 190
e 184 195
e 184 206
e 184 222
e 184 229
e 184 230
e 184 233
e 184 235
e 184 245
e 185 191
e 185 217
e 185 219
e 185 220
e 185 224
e 185 225
e 185 229
e 185 231
e 185 241
e 185 250
e 186 198
e 186 204
e 186 208
e 186 213
e 186 215
e 186 218
e 186 233
e 186 236
e 186 245
e 186 247
e 186 248
e 186 250
e 187 188
e 187 193
e 187 217
e 187 246
e 188 208
e 188 215
e 188 227
e 188 239
e 188 243
e 188 246
e 189 205
e 189 209
e 189 229
e 189 243
e 190 204
e 190 205
e 190 212
e 190 222
e 190 227
e 190 239
e 191 199
e 191 224
e 191 231
e 191 241
e 191 243
e 191 248
e 192 234
e 192 244
e 192 246
e 193 205
e 193 217
e 193 223
e 193 226
e 193 230
e 193 233
e 193 236
e 193 249
e 194 199
e 194 208
e 194 209
e 194 217
e 194 231
e 195 198
e 195 201
e 195 203
e 195 205
e 195 213
e 195 216
e 195 220
e 195 221
e 195 234
e 196 223
e 196 228
e 196 231
e 196 237
e 196 243
e 196 248
e 197 209
e 197 210
e 197 214
e 197 218
e 197 228
e 197 247
e 198 218
e 198 221
e 198 231
e 198 248
e 199 203
e 199 211
e 199 233
e 199 234
e 200 217
e 200 221
e 200 235
e 200 239
e 200 240
e 201 211
e 201 212
e 201 226
e 201 230
e 201 237
e 202 218
e 202 222
e 202 224
e 202 229
e 202 236
e 202 250
e 203 209
e 203 211
e 203 218
e 203 227
e 203 231
e 203 233
e 203 235
e 203 240
e 203 242
e 204 208
e 204 209
e 204 250
e 205 212
e 205 224
e 205 248
e 205 250
e 206 212
e 206 218
e 206 244
e 207 211
e 207 214
e 207 234
e 207 235
e 207 241
e 207 245
e 207 248
e 208 218
e 208 231
e 208 232
e 208 235
e 208 249
e 209 224
e 209 233
e 209 237
e 210 218
e 210 223
e 210 241
e 210 246
e 211 213
e 211 219
e 211 221
e 211 225
e 211 234
e 211 244
e 212 220
e 212 237
e 212 240
e 212 242
e 212 246
e 213 228
e 213 241
e 214 217
e 214 219
e 214 232
e 214 248
e 215 244
e 216 224
e 216 235
e 216 240
e 216 244
e 217 237
e 217 238
e 218 221
e 218 229
e 218 238
e 218 247
e 219 224
e 220 222
e 220 230
e 220 241
e 220 242
e 221 222
e 221 225
e 221 236
e 221 244
e 222 248
e 222 249
e 223 241
e 223 244
e 223 247
e 225 236
e 225 238
e 227 237
e 227 239
e 227 243
e 228 230
e 228 244
e 229 233
e 229 238
e 229 242
e 229 245
e 230 235
e 231 232
e 231 237
e 231 240
e 231 244
e 232 235
e 232 246
e 232 249
e 233 244
e 233 247
e 234 243
e 234 248
e 235 240
e 236 247
e 238 248
e 242 247
e 245 248
e 245 249
